15	3	2
3554	3554	3554	
564	12	14	
472	665	1305	
158	461	504	
516	602	655	
64	837	843	
766	808	1193	
484	667	805	
199	596	970	
338	321	415	
768	866	1412	
166	216	359	
881	427	800	
82	115	120	
129	255	337	
638	261	428	
